100
300
50
0 0
16 73
92 77
89 16
97 51
12 31
39 8
18 23
61 84
91 99
67 91
63 20
52 77
63 40
90 9
76 26
8 51
0 30
23 82
9 60
7 9
71 70
11 60
57 79
6 37
52 30
32 97
56 79
97 49
57 57
21 41
3 24
63 14
40 50
48 100
62 56
72 36
64 93
60 32
77 22
63 30
11 71
8 80
23 76
43 90
21 16
53 25
46 17
61 50
18 50
64 32
0 0
70
40
60
60
40
40
40
40
30
40
70
40
50
40
60
30
50
70
60
30
30
40
70
70
30
70
40
60
60
40
40
40
40
30
40
70
40
50
40
60
30
50
70
60
30
30
40
70
70
30
